c b=4,c=1089
p cnf 18 26
4 -8 0
4 -14 0
4 -18 0
-4 8 0
-4 14 0
-4 18 0
3 -7 0
3 -13 0
3 -17 0
-3 7 0
-3 13 0
-3 17 0
2 -6 0
2 -12 0
2 -16 0
-2 6 0
-2 12 0
-2 16 0
1 -5 0
1 -11 0
1 -15 0
-1 5 0
-1 11 0
-1 15 0
-9 0
-10 0
